DIMACS2
40 111 258 119 256 27 316 184 15 155 205 96 67 125 37 171 174 99 236 238 218 307 68 214 175 215 295 73 237 107 66 286 43 191 249 276 234 128 270 129 139
p edge 320 1927
e 0 122 1.0
e 1 206 1.0
e 1 45 10.0
e 2 83 1.0
e 2 0 1.0
e 3 123 2.0
e 3 102 2.0
e 4 121 1.0
e 4 2 1.0
e 5 217 2.0
e 5 110 7.0
e 5 100 4.0
e 6 51 1.0
e 6 4 1.0
e 7 261 1.0
e 8 162 1.0
e 9 56 12.0
e 9 3 5.0
e 9 267 1.0
e 9 65 3.0
e 9 260 11.0
e 9 22 7.0
e 9 242 11.0
e 9 195 1.0
e 9 254 7.0
e 10 135 2.0
e 11 132 1.0
e 11 60 3.0
e 11 214 35.0
e 11 32 4.0
e 11 187 4.0
e 12 139 4.0
e 12 318 12.0
e 12 226 1.0
e 12 273 1.0
e 12 223 1.0
e 12 159 10.0
e 12 185 11.0
e 12 61 1.0
e 12 125 29.0
e 12 253 8.0
e 13 0 1.0
e 14 108 1.0
e 15 239 8.0
e 15 264 32.0
e 15 210 27.0
e 15 313 24.0
e 15 256 36.0
e 15 184 5.0
e 15 144 38.0
e 15 96 47.0
e 15 114 35.0
e 15 17 25.0
e 15 220 7.0
e 15 257 5.0
e 15 66 39.0
e 15 237 35.0
e 15 176 49.0
e 15 69 41.0
e 15 213 7.0
e 15 254 21.0
e 15 79 3.0
e 15 133 22.0
e 15 126 43.0
e 15 312 28.0
e 15 65 36.0
e 15 21 23.0
e 15 22 14.0
e 15 86 21.0
e 15 44 20.0
e 15 278 45.0
e 15 10 46.0
e 15 263 41.0
e 15 152 7.0
e 15 212 8.0
e 15 39 21.0
e 15 106 15.0
e 15 23 49.0
e 15 85 17.0
e 15 314 43.0
e 15 217 40.0
e 15 174 3.0
e 15 297 27.0
e 16 9 11.0
e 16 279 1.0
e 16 280 1.0
e 17 58 1.0
e 18 258 8.0
e 18 80 5.0
e 18 173 5.0
e 18 98 8.0
e 18 198 3.0
e 19 218 6.0
e 20 183 1.0
e 20 233 1.0
e 21 62 1.0
e 22 89 1.0
e 23 256 42.0
e 23 211 2.0
e 24 154 1.0
e 25 39 2.0
e 25 271 1.0
e 25 55 2.0
e 26 121 1.0
e 27 132 17.0
e 27 29 31.0
e 27 116 43.0
e 27 217 14.0
e 27 147 26.0
e 27 269 22.0
e 27 78 34.0
e 27 79 1.0
e 27 194 10.0
e 27 108 32.0
e 27 302 36.0
e 27 181 43.0
e 27 190 20.0
e 27 60 20.0
e 27 86 21.0
e 27 28 21.0
e 27 171 44.0
e 27 266 16.0
e 27 305 35.0
e 27 312 30.0
e 27 135 12.0
e 27 255 30.0
e 27 175 10.0
e 27 25 8.0
e 27 232 39.0
e 27 301 38.0
e 27 191 24.0
e 27 231 34.0
e 27 291 15.0
e 27 85 37.0
e 27 219 16.0
e 27 304 37.0
e 27 12 37.0
e 27 280 18.0
e 27 226 27.0
e 27 233 38.0
e 27 140 41.0
e 27 218 19.0
e 27 26 13.0
e 28 194 1.0
e 29 289 1.0
e 29 30 1.0
e 30 156 1.0
e 31 279 1.0
e 32 217 1.0
e 33 41 1.0
e 34 204 2.0
e 34 42 1.0
e 34 158 3.0
e 35 163 1.0
e 35 290 1.0
e 36 6 1.0
e 36 56 1.0
e 37 81 33.0
e 37 312 7.0
e 37 113 40.0
e 37 305 47.0
e 37 106 18.0
e 37 50 32.0
e 37 198 31.0
e 37 124 42.0
e 37 298 7.0
e 37 196 40.0
e 37 243 33.0
e 37 128 13.0
e 37 212 16.0
e 37 110 34.0
e 37 168 47.0
e 37 260 15.0
e 37 291 18.0
e 37 59 38.0
e 37 19 22.0
e 37 192 16.0
e 37 44 16.0
e 37 136 41.0
e 37 173 1.0
e 37 307 44.0
e 37 275 15.0
e 37 89 8.0
e 37 199 7.0
e 37 35 13.0
e 37 171 29.0
e 37 224 44.0
e 37 41 40.0
e 37 148 36.0
e 37 202 29.0
e 37 248 22.0
e 37 149 49.0
e 37 246 47.0
e 37 241 33.0
e 37 138 44.0
e 37 301 30.0
e 37 32 31.0
e 38 296 1.0
e 39 54 3.0
e 40 168 1.0
e 40 173 2.0
e 40 296 1.0
e 41 312 1.0
e 42 203 1.0
e 43 61 10.0
e 43 99 37.0
e 43 121 47.0
e 43 34 30.0
e 43 308 37.0
e 43 132 23.0
e 43 171 25.0
e 43 126 43.0
e 43 41 19.0
e 43 234 23.0
e 43 153 43.0
e 43 155 8.0
e 43 100 19.0
e 43 280 41.0
e 43 85 12.0
e 43 228 38.0
e 43 9 31.0
e 43 56 27.0
e 43 107 26.0
e 43 278 4.0
e 43 265 21.0
e 43 154 40.0
e 43 57 35.0
e 43 114 23.0
e 43 250 20.0
e 43 55 27.0
e 43 247 2.0
e 43 125 37.0
e 43 230 37.0
e 43 214 18.0
e 43 72 17.0
e 43 166 15.0
e 43 251 33.0
e 43 266 17.0
e 43 68 38.0
e 43 286 43.0
e 43 129 28.0
e 43 260 41.0
e 43 236 24.0
e 44 272 1.0
e 45 171 28.0
e 45 207 1.0
e 45 123 3.0
e 45 43 33.0
e 45 293 1.0
e 45 255 11.0
e 45 4 1.0
e 45 124 10.0
e 45 217 12.0
e 46 238 25.0
e 46 268 3.0
e 46 147 6.0
e 46 304 6.0
e 46 285 1.0
e 46 28 1.0
e 46 292 9.0
e 46 239 11.0
e 46 300 1.0
e 46 234 46.0
e 46 240 1.0
e 47 109 1.0
e 47 48 1.0
e 48 1 2.0
e 49 207 1.0
e 50 237 33.0
e 50 43 49.0
e 51 86 10.0
e 52 254 1.0
e 53 140 1.0
e 54 174 21.0
e 55 312 3.0
e 56 10 1.0
e 57 6 1.0
e 58 93 2.0
e 59 246 1.0
e 60 174 15.0
e 61 28 10.0
e 61 154 2.0
e 61 87 10.0
e 61 208 8.0
e 61 193 10.0
e 61 85 8.0
e 61 183 8.0
e 61 147 10.0
e 62 217 1.0
e 63 165 1.0
e 64 101 1.0
e 65 163 1.0
e 66 2 35.0
e 66 270 26.0
e 66 268 49.0
e 66 307 44.0
e 66 155 37.0
e 66 252 2.0
e 66 133 16.0
e 66 304 28.0
e 66 230 33.0
e 66 19 45.0
e 66 251 23.0
e 66 310 32.0
e 66 154 34.0
e 66 318 16.0
e 66 82 19.0
e 66 132 47.0
e 66 119 8.0
e 66 67 31.0
e 66 59 3.0
e 66 23 4.0
e 66 244 33.0
e 66 93 2.0
e 66 258 38.0
e 66 76 4.0
e 66 28 13.0
e 66 9 31.0
e 66 203 11.0
e 66 128 36.0
e 66 305 7.0
e 66 308 20.0
e 66 92 46.0
e 66 221 34.0
e 66 121 25.0
e 66 109 4.0
e 66 242 24.0
e 66 87 1.0
e 66 55 9.0
e 66 200 46.0
e 66 50 5.0
e 67 74 36.0
e 67 34 34.0
e 67 282 3.0
e 67 217 12.0
e 67 71 41.0
e 67 285 22.0
e 67 172 8.0
e 67 213 15.0
e 67 292 18.0
e 67 68 21.0
e 67 37 45.0
e 67 284 9.0
e 67 46 17.0
e 67 4 43.0
e 67 218 46.0
e 67 135 49.0
e 67 11 24.0
e 67 175 6.0
e 67 253 29.0
e 67 271 17.0
e 67 23 38.0
e 67 249 5.0
e 67 53 18.0
e 67 144 8.0
e 67 75 14.0
e 67 95 40.0
e 67 281 32.0
e 67 121 21.0
e 67 73 41.0
e 67 5 19.0
e 67 197 48.0
e 67 176 32.0
e 67 195 15.0
e 67 301 41.0
e 67 214 44.0
e 67 173 1.0
e 67 270 38.0
e 67 293 7.0
e 67 190 23.0
e 68 60 47.0
e 68 174 42.0
e 68 12 4.0
e 68 311 36.0
e 68 263 17.0
e 68 144 23.0
e 68 159 14.0
e 68 169 45.0
e 68 136 31.0
e 68 118 26.0
e 68 226 26.0
e 68 156 12.0
e 68 8 6.0
e 68 215 40.0
e 68 1 13.0
e 68 274 45.0
e 68 2 49.0
e 68 214 29.0
e 68 3 23.0
e 68 268 31.0
e 68 61 5.0
e 68 283 10.0
e 68 41 6.0
e 68 90 34.0
e 68 306 11.0
e 68 142 18.0
e 68 170 6.0
e 68 227 6.0
e 68 273 47.0
e 68 252 35.0
e 68 297 9.0
e 68 150 30.0
e 68 198 40.0
e 68 34 15.0
e 68 253 17.0
e 68 127 20.0
e 68 278 12.0
e 68 44 11.0
e 68 101 22.0
e 69 203 5.0
e 69 102 1.0
e 69 52 5.0
e 69 176 2.0
e 70 265 1.0
e 71 302 1.0
e 71 6 2.0
e 72 206 1.0
e 72 162 2.0
e 73 165 28.0
e 73 180 36.0
e 73 285 21.0
e 73 188 35.0
e 73 145 20.0
e 73 237 40.0
e 73 106 7.0
e 73 97 44.0
e 73 30 3.0
e 73 218 24.0
e 73 95 32.0
e 73 191 14.0
e 73 155 45.0
e 73 123 44.0
e 73 9 14.0
e 73 199 33.0
e 73 153 21.0
e 73 143 28.0
e 73 243 24.0
e 73 313 31.0
e 73 65 7.0
e 73 169 14.0
e 73 25 8.0
e 73 161 14.0
e 73 146 37.0
e 73 251 40.0
e 73 24 49.0
e 73 181 46.0
e 73 227 45.0
e 73 162 22.0
e 73 173 43.0
e 73 64 2.0
e 73 212 49.0
e 73 20 11.0
e 73 78 33.0
e 73 318 34.0
e 73 50 24.0
e 73 147 12.0
e 74 253 2.0
e 74 23 1.0
e 75 48 1.0
e 76 54 1.0
e 77 250 2.0
e 77 79 1.0
e 78 104 1.0
e 79 61 11.0
e 80 204 1.0
e 81 284 1.0
e 81 16 2.0
e 82 266 1.0
e 83 52 1.0
e 84 149 2.0
e 84 270 44.0
e 85 7 1.0
e 86 57 11.0
e 86 97 12.0
e 86 46 8.0
e 86 146 2.0
e 86 123 8.0
e 86 1 1.0
e 86 18 1.0
e 87 300 1.0
e 88 21 2.0
e 88 62 1.0
e 89 185 2.0
e 90 107 20.0
e 90 140 1.0
e 91 276 40.0
e 91 118 2.0
e 92 269 1.0
e 93 236 49.0
e 94 99 44.0
e 95 205 38.0
e 96 84 43.0
e 96 265 37.0
e 96 148 33.0
e 96 266 15.0
e 96 16 39.0
e 96 19 24.0
e 96 201 35.0
e 96 150 4.0
e 96 242 45.0
e 96 144 45.0
e 96 253 40.0
e 96 118 25.0
e 96 187 18.0
e 96 24 11.0
e 96 291 33.0
e 96 250 26.0
e 96 200 30.0
e 96 146 36.0
e 96 198 48.0
e 96 25 34.0
e 96 203 35.0
e 96 229 26.0
e 96 162 16.0
e 96 137 1.0
e 96 230 27.0
e 96 106 19.0
e 96 223 28.0
e 96 231 36.0
e 96 215 30.0
e 96 192 28.0
e 96 82 17.0
e 96 196 22.0
e 96 180 1.0
e 96 71 18.0
e 96 295 15.0
e 96 283 13.0
e 96 2 46.0
e 96 190 44.0
e 96 170 15.0
e 96 287 41.0
e 97 248 1.0
e 98 238 21.0
e 98 251 11.0
e 98 166 1.0
e 98 266 12.0
e 98 281 7.0
e 98 233 11.0
e 98 139 29.0
e 98 145 7.0
e 98 239 1.0
e 98 186 3.0
e 99 19 39.0
e 99 251 39.0
e 99 66 33.0
e 99 286 6.0
e 99 63 28.0
e 99 270 39.0
e 99 316 26.0
e 99 75 44.0
e 99 311 12.0
e 99 308 8.0
e 99 148 20.0
e 99 67 32.0
e 99 222 25.0
e 99 306 17.0
e 99 24 43.0
e 99 239 6.0
e 99 95 11.0
e 99 194 36.0
e 99 51 44.0
e 99 74 26.0
e 99 135 46.0
e 99 289 17.0
e 99 236 14.0
e 99 226 23.0
e 99 201 49.0
e 99 34 44.0
e 99 52 29.0
e 99 136 39.0
e 99 262 9.0
e 99 98 18.0
e 99 100 5.0
e 99 68 5.0
e 99 267 23.0
e 99 143 11.0
e 99 144 14.0
e 99 141 17.0
e 99 255 20.0
e 99 174 1.0
e 99 83 11.0
e 100 144 1.0
e 100 223 1.0
e 100 173 4.0
e 101 263 1.0
e 102 49 1.0
e 103 112 1.0
e 104 76 1.0
e 105 181 2.0
e 105 79 1.0
e 106 249 17.0
e 107 202 47.0
e 107 129 8.0
e 107 40 14.0
e 107 252 26.0
e 107 293 25.0
e 107 45 17.0
e 107 0 5.0
e 107 289 3.0
e 107 116 49.0
e 107 61 7.0
e 107 162 4.0
e 107 149 34.0
e 107 227 35.0
e 107 216 13.0
e 107 60 36.0
e 107 11 48.0
e 107 6 34.0
e 107 302 37.0
e 107 301 42.0
e 107 183 19.0
e 107 203 43.0
e 107 113 19.0
e 107 204 34.0
e 107 62 1.0
e 107 33 8.0
e 107 109 40.0
e 107 163 9.0
e 107 102 18.0
e 107 295 3.0
e 107 41 39.0
e 107 122 19.0
e 107 78 1.0
e 107 207 6.0
e 107 267 22.0
e 107 14 27.0
e 107 307 28.0
e 107 12 9.0
e 107 197 42.0
e 107 274 31.0
e 108 150 1.0
e 109 229 1.0
e 110 307 29.0
e 110 15 39.0
e 110 167 3.0
e 110 263 7.0
e 110 39 10.0
e 110 246 9.0
e 110 229 1.0
e 110 265 10.0
e 111 134 11.0
e 111 11 3.0
e 111 140 21.0
e 111 15 18.0
e 111 142 29.0
e 111 312 48.0
e 111 235 46.0
e 111 39 7.0
e 111 262 23.0
e 111 306 4.0
e 111 192 1.0
e 111 163 30.0
e 111 51 33.0
e 111 247 1.0
e 111 304 8.0
e 111 87 22.0
e 111 272 24.0
e 111 27 23.0
e 111 285 11.0
e 111 23 35.0
e 111 1 33.0
e 111 22 31.0
e 111 313 37.0
e 111 176 27.0
e 111 52 13.0
e 111 143 6.0
e 111 224 16.0
e 111 38 28.0
e 111 139 49.0
e 111 16 24.0
e 111 315 11.0
e 111 184 31.0
e 111 243 7.0
e 111 149 17.0
e 111 295 25.0
e 111 14 22.0
e 111 120 36.0
e 111 152 19.0
e 111 199 48.0
e 111 74 12.0
e 112 55 1.0
e 113 43 11.0
e 113 232 3.0
e 113 160 6.0
e 113 91 3.0
e 113 297 2.0
e 113 117 12.0
e 113 16 8.0
e 113 277 6.0
e 113 74 11.0
e 114 91 1.0
e 115 60 1.0
e 116 178 1.0
e 116 82 5.0
e 116 47 4.0
e 116 24 3.0
e 117 291 1.0
e 118 271 2.0
e 119 282 41.0
e 119 146 49.0
e 119 254 14.0
e 119 245 1.0
e 119 62 41.0
e 119 152 10.0
e 119 251 6.0
e 119 187 34.0
e 119 168 28.0
e 119 294 29.0
e 119 224 5.0
e 119 269 22.0
e 119 137 34.0
e 119 277 38.0
e 119 159 34.0
e 119 16 10.0
e 119 203 11.0
e 119 227 44.0
e 119 252 4.0
e 119 253 35.0
e 119 122 43.0
e 119 290 40.0
e 119 132 18.0
e 119 271 32.0
e 119 235 28.0
e 119 163 40.0
e 119 90 48.0
e 119 30 21.0
e 119 17 4.0
e 119 196 46.0
e 119 255 3.0
e 119 150 47.0
e 119 83 13.0
e 119 225 7.0
e 119 50 13.0
e 119 298 44.0
e 119 304 48.0
e 119 175 36.0
e 119 302 45.0
e 119 57 1.0
e 120 175 47.0
e 120 307 18.0
e 121 202 1.0
e 122 14 1.0
e 123 147 1.0
e 124 43 44.0
e 124 139 8.0
e 124 136 1.0
e 124 73 21.0
e 125 153 38.0
e 125 264 40.0
e 125 111 35.0
e 125 127 10.0
e 125 42 21.0
e 125 232 42.0
e 125 188 46.0
e 125 249 28.0
e 125 39 29.0
e 125 4 43.0
e 125 36 46.0
e 125 262 8.0
e 125 222 3.0
e 125 231 32.0
e 125 51 33.0
e 125 61 20.0
e 125 44 21.0
e 125 213 27.0
e 125 107 22.0
e 125 221 45.0
e 125 101 44.0
e 125 31 29.0
e 125 223 23.0
e 125 191 4.0
e 125 207 10.0
e 125 126 23.0
e 125 2 16.0
e 125 196 19.0
e 125 235 43.0
e 125 93 46.0
e 125 100 33.0
e 125 317 12.0
e 125 48 40.0
e 125 263 27.0
e 125 283 34.0
e 125 109 16.0
e 125 224 38.0
e 125 33 46.0
e 125 136 10.0
e 126 231 1.0
e 127 301 9.0
e 128 41 20.0
e 128 99 14.0
e 128 271 37.0
e 128 10 38.0
e 128 129 22.0
e 128 30 9.0
e 128 205 4.0
e 128 63 10.0
e 128 42 16.0
e 128 299 17.0
e 128 281 14.0
e 128 73 28.0
e 128 115 29.0
e 128 118 15.0
e 128 158 7.0
e 128 210 8.0
e 128 304 47.0
e 128 130 42.0
e 128 155 9.0
e 128 40 29.0
e 128 79 11.0
e 128 119 5.0
e 128 266 6.0
e 128 47 10.0
e 128 114 19.0
e 128 80 8.0
e 128 230 26.0
e 128 77 17.0
e 128 226 25.0
e 128 260 48.0
e 128 254 31.0
e 128 1 23.0
e 128 231 38.0
e 128 65 37.0
e 129 293 46.0
e 129 91 6.0
e 129 308 45.0
e 129 125 19.0
e 129 71 29.0
e 129 314 46.0
e 129 68 11.0
e 129 226 9.0
e 129 280 47.0
e 129 294 8.0
e 129 119 19.0
e 129 245 10.0
e 129 179 23.0
e 129 121 7.0
e 129 77 19.0
e 129 21 47.0
e 129 92 28.0
e 129 136 25.0
e 129 302 13.0
e 129 317 13.0
e 129 108 3.0
e 129 240 26.0
e 129 315 42.0
e 129 75 1.0
e 129 206 40.0
e 129 14 21.0
e 129 258 47.0
e 129 295 45.0
e 129 191 4.0
e 129 147 21.0
e 129 20 14.0
e 129 16 37.0
e 129 299 40.0
e 129 303 10.0
e 129 44 40.0
e 129 45 20.0
e 129 48 28.0
e 129 47 15.0
e 130 219 1.0
e 130 20 1.0
e 131 267 1.0
e 132 176 2.0
e 133 193 1.0
e 133 311 3.0
e 133 11 2.0
e 133 317 5.0
e 134 248 1.0
e 135 14 2.0
e 136 229 1.0
e 137 80 1.0
e 138 201 1.0
e 139 9 29.0
e 139 117 11.0
e 139 150 45.0
e 139 26 1.0
e 139 80 34.0
e 139 133 38.0
e 139 39 43.0
e 139 228 4.0
e 139 169 22.0
e 139 53 46.0
e 139 312 42.0
e 139 65 6.0
e 139 227 12.0
e 139 112 26.0
e 139 157 36.0
e 139 66 15.0
e 139 278 26.0
e 139 86 5.0
e 139 107 16.0
e 139 213 46.0
e 139 146 16.0
e 139 286 49.0
e 139 264 44.0
e 139 99 41.0
e 139 207 44.0
e 139 291 28.0
e 139 162 49.0
e 139 43 17.0
e 139 0 35.0
e 139 140 49.0
e 139 315 47.0
e 139 298 19.0
e 139 97 2.0
e 139 72 45.0
e 139 237 32.0
e 139 100 9.0
e 139 164 9.0
e 140 170 1.0
e 141 249 36.0
e 142 231 2.0
e 143 110 10.0
e 144 269 2.0
e 145 60 1.0
e 146 249 17.0
e 147 156 1.0
e 148 274 2.0
e 149 112 1.0
e 150 41 2.0
e 151 42 1.0
e 151 314 2.0
e 152 299 1.0
e 153 52 3.0
e 153 283 3.0
e 154 57 1.0
e 155 204 43.0
e 155 115 10.0
e 155 205 6.0
e 155 295 48.0
e 155 156 42.0
e 155 34 17.0
e 155 302 4.0
e 155 222 6.0
e 155 88 41.0
e 155 117 19.0
e 155 157 22.0
e 155 95 38.0
e 155 18 7.0
e 155 135 6.0
e 155 279 32.0
e 155 48 34.0
e 155 282 15.0
e 155 41 8.0
e 155 248 46.0
e 155 82 8.0
e 155 145 49.0
e 155 300 10.0
e 155 305 40.0
e 155 251 17.0
e 155 217 4.0
e 155 206 6.0
e 155 195 19.0
e 155 89 31.0
e 155 127 4.0
e 155 190 15.0
e 155 287 48.0
e 155 272 1.0
e 155 193 20.0
e 155 79 31.0
e 155 177 49.0
e 155 37 1.0
e 155 243 31.0
e 156 115 3.0
e 157 299 1.0
e 158 67 36.0
e 158 184 17.0
e 158 5 2.0
e 159 131 1.0
e 160 201 1.0
e 161 199 3.0
e 162 35 2.0
e 163 191 45.0
e 164 256 40.0
e 164 34 1.0
e 165 239 1.0
e 166 17 1.0
e 167 53 1.0
e 168 233 1.0
e 169 261 1.0
e 170 59 1.0
e 171 269 8.0
e 171 109 10.0
e 171 209 21.0
e 171 241 30.0
e 171 262 11.0
e 171 270 27.0
e 171 131 47.0
e 171 295 39.0
e 171 238 16.0
e 171 260 30.0
e 171 185 17.0
e 171 202 37.0
e 171 153 11.0
e 171 170 36.0
e 171 100 49.0
e 171 278 49.0
e 171 235 29.0
e 171 288 9.0
e 171 271 41.0
e 171 154 36.0
e 171 310 8.0
e 171 33 31.0
e 171 147 17.0
e 171 53 25.0
e 171 44 2.0
e 171 308 2.0
e 171 212 10.0
e 171 62 18.0
e 171 110 17.0
e 171 279 26.0
e 171 102 46.0
e 171 2 10.0
e 171 59 44.0
e 171 246 40.0
e 171 81 30.0
e 171 21 34.0
e 171 144 46.0
e 172 180 2.0
e 173 122 1.0
e 174 2 27.0
e 174 316 14.0
e 174 230 11.0
e 174 64 28.0
e 174 62 3.0
e 174 43 9.0
e 174 272 49.0
e 174 11 40.0
e 174 271 1.0
e 174 245 17.0
e 174 295 3.0
e 174 127 1.0
e 174 216 12.0
e 174 264 9.0
e 174 124 42.0
e 174 202 48.0
e 174 255 42.0
e 174 7 21.0
e 174 211 13.0
e 174 277 39.0
e 174 176 43.0
e 174 309 4.0
e 174 30 18.0
e 174 81 27.0
e 174 137 12.0
e 174 65 40.0
e 174 246 47.0
e 174 84 31.0
e 174 44 47.0
e 174 94 6.0
e 174 231 13.0
e 174 140 26.0
e 174 106 19.0
e 174 8 32.0
e 174 290 44.0
e 174 163 25.0
e 175 63 11.0
e 175 288 14.0
e 175 283 7.0
e 175 246 15.0
e 175 3 26.0
e 175 144 24.0
e 175 222 22.0
e 175 77 28.0
e 175 268 38.0
e 175 132 23.0
e 175 39 5.0
e 175 187 49.0
e 175 216 42.0
e 175 145 36.0
e 175 73 41.0
e 175 9 35.0
e 175 68 15.0
e 175 91 44.0
e 175 206 47.0
e 175 190 6.0
e 175 57 26.0
e 175 315 49.0
e 175 218 11.0
e 175 50 28.0
e 175 10 39.0
e 175 245 46.0
e 175 11 24.0
e 175 205 14.0
e 175 276 17.0
e 175 37 3.0
e 175 58 47.0
e 175 285 10.0
e 175 38 38.0
e 175 141 13.0
e 175 4 33.0
e 175 43 33.0
e 175 5 15.0
e 176 123 2.0
e 177 56 1.0
e 178 158 4.0
e 179 88 2.0
e 180 253 3.0
e 181 252 1.0
e 182 3 1.0
e 182 203 1.0
e 183 12 10.0
e 184 190 8.0
e 184 29 5.0
e 184 84 21.0
e 184 133 16.0
e 184 102 38.0
e 184 63 25.0
e 184 108 7.0
e 184 130 32.0
e 184 147 44.0
e 184 159 6.0
e 184 186 5.0
e 184 317 47.0
e 184 73 26.0
e 184 6 31.0
e 184 175 48.0
e 184 94 30.0
e 184 77 9.0
e 184 103 28.0
e 184 78 7.0
e 184 202 23.0
e 184 305 35.0
e 184 149 7.0
e 184 210 24.0
e 184 156 18.0
e 184 207 6.0
e 184 10 27.0
e 184 5 38.0
e 184 198 18.0
e 184 160 35.0
e 184 286 14.0
e 184 289 39.0
e 184 72 15.0
e 184 298 21.0
e 184 284 17.0
e 184 51 15.0
e 184 240 10.0
e 184 290 49.0
e 184 185 21.0
e 185 247 3.0
e 186 153 4.0
e 187 111 19.0
e 187 95 9.0
e 187 248 11.0
e 187 225 8.0
e 187 261 4.0
e 187 123 7.0
e 188 260 1.0
e 189 18 2.0
e 189 218 20.0
e 190 140 2.0
e 191 141 27.0
e 191 120 3.0
e 191 272 32.0
e 191 50 9.0
e 191 192 28.0
e 191 265 48.0
e 191 36 39.0
e 191 123 35.0
e 191 277 48.0
e 191 124 36.0
e 191 165 2.0
e 191 74 9.0
e 191 310 24.0
e 191 58 3.0
e 191 306 25.0
e 191 55 23.0
e 191 178 49.0
e 191 153 12.0
e 191 210 8.0
e 191 284 47.0
e 191 155 14.0
e 191 199 17.0
e 191 254 44.0
e 191 126 38.0
e 191 16 14.0
e 191 177 25.0
e 191 186 36.0
e 191 172 21.0
e 191 225 29.0
e 191 24 2.0
e 191 317 2.0
e 191 307 31.0
e 191 63 46.0
e 191 157 41.0
e 191 241 35.0
e 192 63 2.0
e 193 204 3.0
e 194 183 1.0
e 195 267 3.0
e 196 14 1.0
e 197 199 2.0
e 198 128 37.0
e 199 150 4.0
e 200 225 1.0
e 201 30 1.0
e 202 212 4.0
e 203 63 2.0
e 204 8 2.0
e 205 286 38.0
e 205 101 41.0
e 205 118 26.0
e 205 192 7.0
e 205 97 13.0
e 205 166 37.0
e 205 91 14.0
e 205 138 32.0
e 205 52 18.0
e 205 12 14.0
e 205 136 21.0
e 205 279 38.0
e 205 235 38.0
e 205 108 10.0
e 205 196 2.0
e 205 140 47.0
e 205 303 14.0
e 205 177 34.0
e 205 278 21.0
e 205 146 18.0
e 205 19 23.0
e 205 35 33.0
e 205 266 29.0
e 205 298 42.0
e 205 76 40.0
e 205 195 46.0
e 205 307 4.0
e 205 220 49.0
e 205 197 36.0
e 205 59 36.0
e 205 44 18.0
e 205 106 18.0
e 205 204 23.0
e 205 88 39.0
e 205 24 24.0
e 205 114 22.0
e 206 128 6.0
e 207 44 1.0
e 208 280 1.0
e 209 148 1.0
e 210 245 1.0
e 211 94 1.0
e 212 5 1.0
e 213 266 1.0
e 214 198 21.0
e 214 34 9.0
e 214 4 13.0
e 214 96 35.0
e 214 172 15.0
e 214 138 27.0
e 214 57 21.0
e 214 175 6.0
e 214 296 5.0
e 214 72 13.0
e 214 184 8.0
e 214 2 27.0
e 214 35 20.0
e 214 98 35.0
e 214 71 36.0
e 214 205 1.0
e 214 310 2.0
e 214 26 28.0
e 214 247 16.0
e 214 226 22.0
e 214 42 14.0
e 214 29 32.0
e 214 287 19.0
e 214 78 14.0
e 214 128 10.0
e 214 219 39.0
e 214 37 18.0
e 214 59 4.0
e 214 292 14.0
e 214 95 30.0
e 214 153 23.0
e 214 77 23.0
e 214 267 46.0
e 214 132 23.0
e 214 268 12.0
e 214 87 40.0
e 214 283 21.0
e 215 86 49.0
e 215 85 7.0
e 215 23 4.0
e 215 24 10.0
e 215 246 31.0
e 215 203 38.0
e 215 74 32.0
e 215 204 18.0
e 215 189 11.0
e 215 109 36.0
e 215 36 43.0
e 215 2 12.0
e 215 55 36.0
e 215 47 7.0
e 215 104 42.0
e 215 159 26.0
e 215 145 22.0
e 215 166 42.0
e 215 59 26.0
e 215 295 14.0
e 215 219 41.0
e 215 242 27.0
e 215 272 23.0
e 215 60 33.0
e 215 15 38.0
e 215 244 3.0
e 215 115 41.0
e 215 150 33.0
e 215 281 7.0
e 215 220 36.0
e 215 27 3.0
e 215 105 1.0
e 215 205 9.0
e 215 108 8.0
e 215 206 8.0
e 215 92 11.0
e 215 277 8.0
e 215 310 34.0
e 215 6 28.0
e 216 177 1.0
e 217 106 2.0
e 218 140 2.0
e 218 172 46.0
e 218 226 35.0
e 218 263 23.0
e 218 208 16.0
e 218 42 30.0
e 218 5 19.0
e 218 281 40.0
e 218 158 39.0
e 218 143 39.0
e 218 225 27.0
e 218 54 30.0
e 218 247 27.0
e 218 144 15.0
e 218 171 7.0
e 218 255 31.0
e 218 101 22.0
e 218 9 7.0
e 218 248 11.0
e 218 102 40.0
e 218 137 48.0
e 218 199 38.0
e 218 220 17.0
e 218 133 8.0
e 218 161 25.0
e 218 126 25.0
e 218 3 31.0
e 218 210 1.0
e 218 154 9.0
e 218 193 1.0
e 218 227 41.0
e 218 141 38.0
e 218 84 47.0
e 218 70 34.0
e 218 298 37.0
e 219 49 2.0
e 220 33 1.0
e 221 10 1.0
e 222 283 1.0
e 223 159 1.0
e 224 288 3.0
e 225 302 1.0
e 226 73 33.0
e 226 130 3.0
e 226 234 23.0
e 227 26 1.0
e 228 308 1.0
e 229 144 1.0
e 230 307 11.0
e 231 317 1.0
e 232 253 2.0
e 233 196 1.0
e 234 64 18.0
e 234 299 46.0
e 234 142 28.0
e 234 56 39.0
e 234 246 12.0
e 234 268 46.0
e 234 283 26.0
e 234 164 25.0
e 234 74 44.0
e 234 220 27.0
e 234 3 32.0
e 234 269 46.0
e 234 114 12.0
e 234 145 24.0
e 234 160 48.0
e 234 141 32.0
e 234 62 45.0
e 234 1 17.0
e 234 117 2.0
e 234 9 25.0
e 234 181 42.0
e 234 122 47.0
e 234 143 43.0
e 234 182 31.0
e 234 41 8.0
e 234 35 23.0
e 234 302 43.0
e 234 7 2.0
e 234 58 10.0
e 234 22 20.0
e 234 183 12.0
e 234 8 34.0
e 234 166 35.0
e 234 185 21.0
e 234 57 33.0
e 234 209 9.0
e 234 36 8.0
e 234 266 15.0
e 235 287 1.0
e 236 280 13.0
e 236 126 24.0
e 236 189 4.0
e 236 72 14.0
e 236 125 44.0
e 236 121 14.0
e 236 220 17.0
e 236 17 38.0
e 236 33 36.0
e 236 275 10.0
e 236 232 4.0
e 236 209 40.0
e 236 66 44.0
e 236 276 16.0
e 236 31 36.0
e 236 38 10.0
e 236 175 26.0
e 236 289 41.0
e 236 130 23.0
e 236 258 18.0
e 236 117 25.0
e 236 292 10.0
e 236 186 13.0
e 236 50 1.0
e 236 181 3.0
e 236 316 47.0
e 236 231 27.0
e 236 109 39.0
e 236 265 8.0
e 236 48 29.0
e 236 221 32.0
e 236 56 44.0
e 236 318 3.0
e 236 217 20.0
e 236 205 4.0
e 236 137 10.0
e 236 264 19.0
e 237 172 9.0
e 237 180 33.0
e 237 45 48.0
e 237 266 5.0
e 237 260 40.0
e 237 60 12.0
e 237 291 41.0
e 237 114 33.0
e 237 248 25.0
e 237 32 46.0
e 237 212 47.0
e 237 42 3.0
e 237 282 40.0
e 237 179 7.0
e 237 119 33.0
e 237 249 1.0
e 237 122 12.0
e 237 54 43.0
e 237 316 15.0
e 237 126 19.0
e 237 69 6.0
e 237 166 17.0
e 237 35 36.0
e 237 148 24.0
e 237 247 44.0
e 237 88 7.0
e 237 167 8.0
e 237 189 47.0
e 237 204 28.0
e 237 213 48.0
e 237 10 2.0
e 237 74 20.0
e 237 76 18.0
e 237 142 48.0
e 237 146 22.0
e 237 3 17.0
e 237 312 18.0
e 238 38 5.0
e 238 281 4.0
e 238 196 12.0
e 238 69 11.0
e 238 115 12.0
e 238 218 28.0
e 238 209 7.0
e 238 130 1.0
e 238 79 7.0
e 238 146 35.0
e 238 59 31.0
e 238 231 18.0
e 238 85 46.0
e 238 197 28.0
e 238 120 41.0
e 238 176 27.0
e 238 6 47.0
e 238 304 45.0
e 238 26 31.0
e 238 195 17.0
e 238 191 37.0
e 238 9 21.0
e 238 32 32.0
e 238 33 8.0
e 238 177 42.0
e 238 289 11.0
e 238 253 24.0
e 238 278 43.0
e 238 149 47.0
e 238 23 18.0
e 238 182 32.0
e 238 244 49.0
e 238 314 12.0
e 238 292 33.0
e 238 275 35.0
e 238 116 40.0
e 238 307 16.0
e 238 220 38.0
e 239 185 2.0
e 240 279 1.0
e 241 230 2.0
e 242 285 1.0
e 243 134 1.0
e 243 54 3.0
e 244 11 1.0
e 245 244 2.0
e 246 310 1.0
e 247 284 1.0
e 248 149 1.0
e 249 199 16.0
e 249 160 39.0
e 249 145 20.0
e 249 284 49.0
e 249 220 25.0
e 249 68 13.0
e 249 21 24.0
e 249 126 6.0
e 249 35 37.0
e 249 142 19.0
e 249 240 14.0
e 249 0 16.0
e 249 97 21.0
e 249 31 18.0
e 249 24 22.0
e 249 34 40.0
e 249 84 20.0
e 249 131 35.0
e 249 86 9.0
e 249 248 48.0
e 249 23 17.0
e 249 228 12.0
e 249 45 6.0
e 249 152 26.0
e 249 79 28.0
e 249 69 11.0
e 249 17 4.0
e 249 205 39.0
e 249 192 23.0
e 249 143 8.0
e 249 137 37.0
e 249 252 40.0
e 249 251 47.0
e 249 265 14.0
e 249 61 45.0
e 250 27 49.0
e 251 166 2.0
e 252 286 14.0
e 253 247 2.0
e 254 245 1.0
e 255 191 16.0
e 256 64 19.0
e 256 121 27.0
e 256 188 26.0
e 256 254 20.0
e 256 305 15.0
e 256 74 36.0
e 256 191 38.0
e 256 216 46.0
e 256 138 15.0
e 256 122 8.0
e 256 70 1.0
e 256 98 45.0
e 256 158 2.0
e 256 287 21.0
e 256 208 49.0
e 256 206 38.0
e 256 7 15.0
e 256 176 22.0
e 256 189 6.0
e 256 190 32.0
e 256 314 38.0
e 256 95 8.0
e 256 315 45.0
e 256 275 37.0
e 256 170 25.0
e 256 217 25.0
e 256 112 49.0
e 256 97 46.0
e 256 303 39.0
e 256 227 14.0
e 256 42 25.0
e 256 0 16.0
e 256 262 38.0
e 256 119 8.0
e 256 128 14.0
e 256 56 30.0
e 256 295 32.0
e 256 200 22.0
e 257 285 1.0
e 258 65 17.0
e 258 16 32.0
e 258 218 14.0
e 258 187 4.0
e 258 174 2.0
e 258 156 20.0
e 258 249 7.0
e 258 175 39.0
e 258 215 35.0
e 258 222 21.0
e 258 147 39.0
e 258 292 11.0
e 258 12 14.0
e 258 294 3.0
e 258 212 18.0
e 258 105 32.0
e 258 124 42.0
e 258 153 36.0
e 258 78 3.0
e 258 59 37.0
e 258 154 30.0
e 258 278 2.0
e 258 141 47.0
e 258 155 40.0
e 258 127 46.0
e 258 35 2.0
e 258 125 21.0
e 258 6 20.0
e 258 280 19.0
e 258 293 9.0
e 258 234 38.0
e 258 53 8.0
e 258 178 17.0
e 258 157 37.0
e 258 19 23.0
e 258 116 35.0
e 258 208 30.0
e 259 66 40.0
e 259 202 1.0
e 259 111 40.0
e 260 200 1.0
e 261 123 1.0
e 262 70 1.0
e 263 270 14.0
e 264 145 1.0
e 265 37 34.0
e 266 292 1.0
e 267 282 1.0
e 268 187 5.0
e 269 227 1.0
e 270 279 39.0
e 270 19 17.0
e 270 189 5.0
e 270 78 37.0
e 270 129 1.0
e 270 38 46.0
e 270 45 4.0
e 270 277 15.0
e 270 309 41.0
e 270 169 39.0
e 270 79 36.0
e 270 179 31.0
e 270 284 14.0
e 270 96 39.0
e 270 112 20.0
e 270 300 19.0
e 270 133 32.0
e 270 283 29.0
e 270 282 2.0
e 270 120 15.0
e 270 74 5.0
e 270 215 49.0
e 270 271 15.0
e 270 174 44.0
e 270 21 15.0
e 270 93 30.0
e 270 280 42.0
e 270 108 14.0
e 270 307 27.0
e 270 34 37.0
e 270 175 13.0
e 270 248 12.0
e 270 281 41.0
e 270 210 19.0
e 270 234 16.0
e 271 140 2.0
e 272 284 1.0
e 273 147 1.0
e 274 287 1.0
e 275 314 1.0
e 276 15 37.0
e 276 100 6.0
e 276 313 4.0
e 276 304 49.0
e 276 16 48.0
e 276 201 13.0
e 276 164 43.0
e 276 246 39.0
e 276 24 5.0
e 276 211 48.0
e 276 235 28.0
e 276 56 46.0
e 276 109 15.0
e 276 47 33.0
e 276 171 42.0
e 276 82 7.0
e 276 248 20.0
e 276 59 27.0
e 276 309 2.0
e 276 293 4.0
e 276 255 8.0
e 276 150 31.0
e 276 188 15.0
e 276 296 11.0
e 276 315 29.0
e 276 303 23.0
e 276 35 7.0
e 276 260 15.0
e 276 101 24.0
e 276 186 9.0
e 276 119 6.0
e 276 92 14.0
e 276 226 1.0
e 276 267 30.0
e 276 89 27.0
e 276 310 3.0
e 276 290 26.0
e 276 225 2.0
e 277 250 2.0
e 278 288 1.0
e 279 128 26.0
e 280 282 2.0
e 281 195 2.0
e 282 257 2.0
e 283 236 39.0
e 284 180 1.0
e 285 128 5.0
e 286 82 13.0
e 286 235 15.0
e 286 273 16.0
e 286 313 24.0
e 286 238 29.0
e 286 231 24.0
e 286 219 12.0
e 286 128 48.0
e 286 256 22.0
e 286 23 15.0
e 286 17 26.0
e 286 67 15.0
e 286 141 24.0
e 286 134 46.0
e 286 32 30.0
e 286 70 23.0
e 286 239 39.0
e 286 249 6.0
e 286 142 12.0
e 286 291 26.0
e 286 226 13.0
e 286 277 42.0
e 286 110 10.0
e 286 168 45.0
e 286 97 41.0
e 286 218 39.0
e 286 196 18.0
e 286 63 41.0
e 286 41 17.0
e 286 100 7.0
e 286 92 24.0
e 286 274 48.0
e 286 201 49.0
e 286 253 27.0
e 286 240 8.0
e 287 22 1.0
e 288 103 2.0
e 289 283 2.0
e 290 289 1.0
e 291 8 1.0
e 292 17 1.0
e 293 281 1.0
e 294 24 1.0
e 295 69 13.0
e 295 60 36.0
e 295 254 15.0
e 295 216 49.0
e 295 289 36.0
e 295 9 17.0
e 295 66 7.0
e 295 112 11.0
e 295 3 42.0
e 295 218 47.0
e 295 141 31.0
e 295 84 16.0
e 295 172 13.0
e 295 260 38.0
e 295 42 22.0
e 295 63 48.0
e 295 232 40.0
e 295 67 41.0
e 295 220 45.0
e 295 202 12.0
e 295 284 19.0
e 295 219 26.0
e 295 221 33.0
e 295 189 16.0
e 295 122 35.0
e 295 23 28.0
e 295 244 48.0
e 295 77 26.0
e 295 179 20.0
e 295 176 33.0
e 295 130 8.0
e 295 290 41.0
e 296 31 1.0
e 297 38 4.0
e 297 221 1.0
e 297 210 1.0
e 298 103 2.0
e 299 172 1.0
e 300 64 1.0
e 301 73 31.0
e 301 133 7.0
e 301 17 1.0
e 301 281 9.0
e 301 254 12.0
e 301 223 3.0
e 302 200 1.0
e 303 220 2.0
e 304 149 1.0
e 305 128 8.0
e 306 261 1.0
e 307 298 42.0
e 307 267 38.0
e 307 279 11.0
e 307 221 49.0
e 307 295 36.0
e 307 201 19.0
e 307 188 25.0
e 307 285 4.0
e 307 81 42.0
e 307 244 9.0
e 307 268 31.0
e 307 106 27.0
e 307 108 38.0
e 307 177 42.0
e 307 259 12.0
e 307 18 33.0
e 307 204 47.0
e 307 166 26.0
e 307 76 37.0
e 307 56 39.0
e 307 43 48.0
e 307 99 30.0
e 307 75 31.0
e 307 103 14.0
e 307 258 15.0
e 307 88 10.0
e 307 241 24.0
e 307 253 1.0
e 307 215 15.0
e 307 22 36.0
e 307 113 7.0
e 308 13 1.0
e 309 255 3.0
e 310 27 30.0
e 311 123 1.0
e 312 148 1.0
e 313 94 1.0
e 314 45 11.0
e 315 205 18.0
e 316 288 44.0
e 316 248 15.0
e 316 11 36.0
e 316 8 9.0
e 316 311 17.0
e 316 104 8.0
e 316 6 45.0
e 316 216 44.0
e 316 36 30.0
e 316 119 38.0
e 316 267 22.0
e 316 166 36.0
e 316 292 43.0
e 316 274 11.0
e 316 79 27.0
e 316 91 22.0
e 316 239 25.0
e 316 117 31.0
e 316 249 8.0
e 316 71 24.0
e 316 52 16.0
e 316 313 13.0
e 316 223 25.0
e 316 218 23.0
e 316 29 25.0
e 316 76 47.0
e 316 224 19.0
e 316 294 8.0
e 316 220 8.0
e 316 55 8.0
e 316 221 29.0
e 316 293 29.0
e 316 225 26.0
e 316 262 16.0
e 316 182 25.0
e 316 212 47.0
e 316 58 34.0
e 317 167 2.0
e 318 82 2.0
e 319 140 1.0
e 319 81 1.0
